NAME : random871040
COMMENT: random generated with id 871040
TYPE : TSP
DIMENSION : 20
EDGE_WEIGHT_TYPE : EUC_2D
NODE_COORD_SECTION
1 19.092336 18.568376
2 19.462912 18.888168
3 11.710968 2.399834
4 10.553055 10.020469
5 5.155960 16.621562
6 13.694048 3.056900
7 3.831415 8.609833
8 16.011049 1.738261
9 11.670861 13.261645
10 16.868295 0.242561
11 19.266822 10.334374
12 1.079268 3.214984
13 11.721959 16.218079
14 5.967566 4.966592
15 13.250898 12.526496
16 15.852099 12.343235
17 11.094872 15.315011
18 11.231402 2.805840
19 17.714845 1.784457
20 12.826310 2.870806
EOF
